

******************************************************************************
This program contains Ipopt, a library for large-scale nonlinear optimization.
 Ipopt is released as open source code under the Eclipse Public License (EPL).
         For more information visit https://github.com/coin-or/Ipopt
******************************************************************************

This is Ipopt version 3.14.11, running with linear solver MUMPS 5.5.1.

Number of nonzeros in equality constraint Jacobian...:        0
Number of nonzeros in inequality constraint Jacobian.:        0
Number of nonzeros in Lagrangian Hessian.............:        2

Total number of variables............................:        2
                     variables with only lower bounds:        0
                variables with lower and upper bounds:        0
                     variables with only upper bounds:        0
Total number of equality constraints.................:        0
Total number of inequality constraints...............:        0
        inequality constraints with only lower bounds:        0
   inequality constraints with lower and upper bounds:        0
        inequality constraints with only upper bounds:        0

iter    objective    inf_pr   inf_du lg(mu)  ||d||  lg(rg) alpha_du alpha_pr  ls
   0  2.0000000e+00 0.00e+00 3.00e+00  -1.0 0.00e+00    -  0.00e+00 0.00e+00   0
   1  2.0743092e-02 0.00e+00 2.00e+00  -1.0 3.00e+04  -4.0 1.00e+00 3.05e-05f 16
   2 -9.9995438e-01 0.00e+00 2.34e-02  -1.0 1.00e+00    -  1.00e+00 1.00e+00f  1
   3 -1.0000000e+00 0.00e+00 4.54e-05  -3.8 3.89e-03    -  1.00e+00 1.00e+00f  1
   4 -1.0000000e+00 0.00e+00 1.72e-10  -5.7 7.56e-06    -  1.00e+00 1.00e+00f  1

Number of Iterations....: 4

                                   (scaled)                 (unscaled)
Objective...............:  -1.0000000000000000e+00   -1.0000000000000000e+00
Dual infeasibility......:   1.7163470644732115e-10    1.7163470644732115e-10
Constraint violation....:   0.0000000000000000e+00    0.0000000000000000e+00
Variable bound violation:   0.0000000000000000e+00    0.0000000000000000e+00
Complementarity.........:   0.0000000000000000e+00    0.0000000000000000e+00
Overall NLP error.......:   1.7163470644732115e-10    1.7163470644732115e-10


Number of objective function evaluations             = 24
Number of objective gradient evaluations             = 5
Number of equality constraint evaluations            = 0
Number of inequality constraint evaluations          = 0
Number of equality constraint Jacobian evaluations   = 0
Number of inequality constraint Jacobian evaluations = 0
Number of Lagrangian Hessian evaluations             = 4
Total seconds in IPOPT                               = 0.004

EXIT: Optimal Solution Found.
 
Ipopt 3.14.11: Optimal Solution Found
